c Random generated cnf formula, satisfiable: false
p cnf 10 50
6 -10 -1 0
2 9 -6 0
-1 5 -8 0
3 1 7 0
-8 5 4 0
9 -2 6 0
1 -4 -7 0
2 -9 -7 0
1 -7 -9 0
-6 2 -8 0
7 -4 10 0
5 1 4 0
9 -5 -10 0
-10 -3 -8 0
10 3 9 0
4 1 9 0
3 -5 1 0
3 -8 -7 0
6 4 -5 0
-8 -1 6 0
3 -6 -2 0
-5 -1 2 0
6 -1 -5 0
5 6 -4 0
4 8 2 0
2 -8 5 0
9 4 1 0
6 8 -7 0
-8 10 -3 0
-4 6 -2 0
-2 -6 -3 0
1 -4 9 0
-3 -5 10 0
8 -9 -1 0
8 4 -5 0
6 7 -9 0
-10 -5 -1 0
9 -8 5 0
1 4 -10 0
7 -5 -1 0
9 -6 2 0
7 -10 9 0
-3 -10 -8 0
-3 -4 5 0
9 -10 -1 0
-4 2 8 0
3 -10 9 0
6 -7 -8 0
1 -2 7 0
-9 -7 4 0
